WARNING: for repeatability, setting FPU to use double precision
============================[ Problem Statistics ]=============================
|                                                                             |
|  Number of variables:            50                                         |
|  Number of clauses:             218                                         |
|  Parse time:                   0.00 s                                       |
|                                                                             |
============================[ Search Statistics ]==============================
| Conflicts |          ORIGINAL         |          LEARNT          | Progress |
|           |    Vars  Clauses Literals |    Limit  Clauses Lit/Cl |          |
===============================================================================
===============================================================================
restarts              : 1
conflicts             : 75             (49116 /sec)
decisions             : 93             (0.00 % random) (60904 /sec)
propagations          : 1238           (810740 /sec)
conflict literals     : 295            (15.95 % deleted)
Memory used           : 20.00 MB
CPU time              : 0.001527 s

UNSATISFIABLE
